142720.27,61.12,75.79
149880.93,58.2,72.17
143593.85,60.74,75.33
143603.51,60.74,75.32
152815.32,57.08,70.78
148561.44,58.71,72.81
148587.12,58.7,72.8
143248.53,60.89,75.51
151283.89,57.66,71.5
142976.13,61.01,75.65
154563.41,56.43,69.98
150200.47,58.07,72.02
152254.04,57.29,71.04
141080.2,61.83,76.67
155745.02,56.01,69.45
140568.74,62.05,76.95
140269.17,62.18,77.11
155015.54,56.27,69.78
144415.16,60.4,74.9
140401.17,62.13,77.04
